TOUR_SECTION
1
71
161
49
122
150
170
101
176
110
25
201
98
50
134
7
119
97
146
192
198
157
57
188
90
104
197
154
142
91
67
10
41
187
132
145
124
106
30
158
55
191
14
194
141
47
61
144
162
56
54
73
196
96
165
128
93
28
92
64
87
129
182
123
33
117
94
68
89
127
4
138
179
190
195
40
102
8
120
69
84
131
74
80
70
174
72
48
53
136
155
22
121
3
172
45
151
52
88
32
163
11
168
85
139
36
29
143
38
13
116
109
59
18
140
31
164
16
147
112
111
23
175
95
42
21
24
130
99
193
189
133
12
105
103
77
65
5
78
81
169
35
62
167
66
107
6
9
76
19
37
180
60
200
166
125
63
173
44
135
51
115
34
82
83
181
108
199
156
114
126
152
177
58
171
43
186
17
86
113
100
27
75
183
184
79
159
160
118
39
2
149
20
153
178
46
137
15
148
26
185
-1
EOF